
Gurobi 7.0.2 (win64) logging started 06/27/20 07:18:22

Read LP format model from file C:\George\Professor\Pesquisa\Orientacoes em Pos-graduacao\2019 MSC PPGCC Guilherme Figueroa\Fanjuls Solver\Results\I_150_10_S_1-99_9_MTZ_KB.lp
Reading time = 1.21 seconds
: 25820 rows, 228151 columns, 954010 nonzeros
Optimize a model with 25820 rows, 228151 columns and 954010 nonzeros
Variable types: 1651 continuous, 226500 integer (226500 binary)
Coefficient statistics:
  Matrix range     [1e+00, 2e+02]
  Objective range  [1e+00, 1e+00]
  Bounds range     [1e+00, 1e+00]
  RHS range        [1e+00, 1e+02]
Presolve time: 2.59s
Presolved: 25820 rows, 228151 columns, 954010 nonzeros
Variable types: 150 continuous, 228001 integer (228000 binary)
Found heuristic solution: objective 15723.000000
Found heuristic solution: objective 15658.000000

Root simplex log...

Iteration    Objective       Primal Inf.    Dual Inf.      Time
       0    0.0000000e+00   3.000000e+02   0.000000e+00      6s
    4987    1.8956931e-04   1.977361e+03   0.000000e+00     10s
    8234    2.3853624e-04   3.207189e+03   0.000000e+00     16s
   10558    2.9374579e-04   2.341811e+03   0.000000e+00     20s
   13544    3.7142935e-04   2.993126e+03   0.000000e+00     25s
   17895    6.2546708e-04   3.241239e+03   0.000000e+00     30s
   27959    1.6687761e+02   5.664830e+03   0.000000e+00     35s
   32608    2.1339784e+02   4.136273e+02   0.000000e+00     40s
   34804    2.1976740e+02   1.759966e+02   0.000000e+00     45s
   36284    2.2168632e+02   3.572483e+01   0.000000e+00     50s
   36646    2.2183225e+02   0.000000e+00   0.000000e+00     52s

Root relaxation: objective 2.218322e+02, 36646 iterations, 46.40 seconds

    Nodes    |    Current Node    |     Objective Bounds      |     Work
 Expl Unexpl |  Obj  Depth IntInf | Incumbent    BestBd   Gap | It/Node Time

     0     0  221.83225    0  452 15658.0000  221.83225  98.6%     -   53s
H    0     0                     290.0000000  221.83225  23.5%     -  104s
     0     0  222.00745    0  500  290.00000  222.00745  23.4%     -  196s
     0     0  222.00745    0  501  290.00000  222.00745  23.4%     -  197s
     0     0  223.00000    0  595  290.00000  223.00000  23.1%     -  263s
     0     0  223.00000    0  621  290.00000  223.00000  23.1%     -  264s
     0     0  223.00000    0  599  290.00000  223.00000  23.1%     -  307s
     0     0  223.00000    0  592  290.00000  223.00000  23.1%     -  308s
     0     0  223.00000    0  385  290.00000  223.00000  23.1%     -  384s
     0     0  223.00000    0  398  290.00000  223.00000  23.1%     -  385s
     0     0  223.00000    0  325  290.00000  223.00000  23.1%     -  455s
     0     0  223.00000    0  589  290.00000  223.00000  23.1%     -  555s
     0     0  223.00000    0  412  290.00000  223.00000  23.1%     -  676s
H    0     0                     269.0000000  223.00000  17.1%     -  800s
     0     0  223.00000    0  510  269.00000  223.00000  17.1%     -  816s
     0     0  223.00000    0  290  269.00000  223.00000  17.1%     -  919s
     0     0  223.00000    0  465  269.00000  223.00000  17.1%     -  941s
     0     0  223.00000    0  333  269.00000  223.00000  17.1%     - 1037s
     0     0  223.00000    0  554  269.00000  223.00000  17.1%     - 1077s
     0     0  223.00000    0  449  269.00000  223.00000  17.1%     - 1137s
     0     0  223.00000    0  449  269.00000  223.00000  17.1%     - 1154s
     0     2  223.00000    0  449  269.00000  223.00000  17.1%     - 1235s
     2     4  223.00000    2  560  269.00000  223.00000  17.1%  2831 1257s
     3     5  223.00000    3  560  269.00000  223.00000  17.1%  2922 1280s
     6     8  223.00000    6  548  269.00000  223.00000  17.1%  1776 1289s
     7     9  223.02291    7  521  269.00000  223.00000  17.1%  1585 1291s
     8    10  223.07419    7  521  269.00000  223.00000  17.1%  1702 1304s
     9    11  223.35732    8  490  269.00000  223.00000  17.1%  1586 1307s
    11    13  223.64165   10  480  269.00000  223.00000  17.1%  1375 1311s
    12    14  224.22350   10  488  269.00000  223.00000  17.1%  1353 1315s
    14    16  224.60439   11  463  269.00000  223.00000  17.1%  1245 1320s
    16    18  225.42752   12  455  269.00000  223.00000  17.1%  1203 1329s
    17    19  225.49766   13  448  269.00000  223.00000  17.1%  1160 1331s
    19    21  225.60221   14  417  269.00000  223.00000  17.1%  1103 1337s
    20    22  225.70897   15  487  269.00000  223.00000  17.1%  1070 1340s
    23    25  226.26543   18  482  269.00000  223.00000  17.1%   981 1347s
    25    27  226.19971   19  452  269.00000  223.00000  17.1%   937 1352s
    26    28  226.42174   20  505  269.00000  223.00000  17.1%   925 1355s
    27    29  227.19260   20  420  269.00000  223.00000  17.1%   942 1647s
    29    31  227.34237   22  450  269.00000  223.00000  17.1%   904 1653s
    30    32  228.36924   22  346  269.00000  223.00000  17.1%   918 1661s
    32    34  228.67269   23  335  269.00000  223.00000  17.1%   891 1666s
    34    36  228.76689   25  337  269.00000  223.00000  17.1%   855 1670s
    36    38  229.69975   27  319  269.00000  223.00000  17.1%   849 1678s
    37    39  229.24309   27  318  269.00000  223.00000  17.1%   843 1683s
    38    40  229.28370   28  308  269.00000  223.00000  17.1%   829 1685s
    40    42  229.90907   29  369  269.00000  223.00000  17.1%   823 1694s
    41    43  230.44916   29  333  269.00000  223.00000  17.1%   827 1699s
    42    44  230.52714   30  331  269.00000  223.00000  17.1%   813 1701s
    43    45  230.72003   30  369  269.00000  223.00000  17.1%   805 1705s
    44    46  231.00958   31  366  269.00000  223.00000  17.1%   803 1710s
    46    48  230.66870   32  342  269.00000  223.00000  17.1%   784 1715s
    47    49  230.88434   32  308  269.00000  223.00000  17.1%   784 1720s
    49    51  231.03371   33  273  269.00000  223.00000  17.1%   779 1728s
    50    52  231.16222   34  326  269.00000  223.00000  17.1%   774 1731s
    51    53  231.34328   35  336  269.00000  223.00000  17.1%   770 1735s
    53    55  231.71859   36  327  269.00000  223.00000  17.1%   756 1740s
    54    56  232.44504   36  407  269.00000  223.00000  17.1%   765 1747s
    55    57  231.82102   37  315  269.00000  223.00000  17.1%   759 1750s
    57    59  232.51654   38  370  269.00000  223.00000  17.1%   751 1756s
    59    61  232.71803   39  348  269.00000  223.00000  17.1%   740 1761s
    61    63  234.08320   41  319  269.00000  223.00000  17.1%   740 1770s
    63    65  233.02448   42  306  269.00000  223.00000  17.1%   732 1776s
    64    66  234.59633   42  327  269.00000  223.00000  17.1%   748 1786s
    67    69  233.17293   45  292  269.00000  223.00000  17.1%   727 1792s
    68    70  233.23707   46  289  269.00000  223.00000  17.1%   722 1795s
    69    71  233.48007   46  308  269.00000  223.00000  17.1%   724 1800s
    71    73  233.89018   47  389  269.00000  223.00000  17.1%   723 1808s
    73    75  234.02735   49  390  269.00000  223.00000  17.1%   715 1813s
    74    76  234.25916   50  377  269.00000  223.00000  17.1%   712 1816s
    75    77  236.61387   50  275  269.00000  223.00000  17.1%   723 1823s
    76    78  234.30538   51  363  269.00000  223.00000  17.1%   718 1825s
    79    81  234.64566   54  408  269.00000  223.00000  17.1%   705 1831s
    80    82  235.49882   55  365  269.00000  223.00000  17.1%   713 1838s
    81    83  234.69415   55  377  269.00000  223.00000  17.1%   708 1840s
    83    85  234.93648   57  308  269.00000  223.00000  17.1%   703 1846s
    85    87  236.84000   58  281  269.00000  223.00000  17.1%   705 1856s
    89    91  235.14307   62  321  269.00000  223.00000  17.1%   679 1860s
    90    92  235.31829   63  311  269.00000  223.00000  17.1%   682 1865s
    91    93  235.71122   63  290  269.00000  223.00000  17.1%   686 1870s
    93    95  235.38288   65  337  269.00000  223.00000  17.1%   681 1875s
    95    97  235.48269   67  340  269.00000  223.00000  17.1%   674 1880s
    97    99  235.63982   69  348  269.00000  223.00000  17.1%   670 1886s
    99   101  235.72597   71  365  269.00000  223.00000  17.1%   664 1890s
   101   103  237.14943   72  296  269.00000  223.00000  17.1%   668 1897s
   103   105  237.21462   73  305  269.00000  223.00000  17.1%   665 1900s
   105   107  240.79979   74  350  269.00000  223.00000  17.1%   671 1907s
   108   110  237.51265   77  330  269.00000  223.00000  17.1%   659 1910s
   113   115  238.31360   81  269  269.00000  223.00000  17.1%   649 1918s
   115   117  237.80671   83  308  269.00000  223.00000  17.1%   640 1920s
   119   121  237.99268   87  330  269.00000  223.00000  17.1%   628 1925s
   123   125  238.11527   91  270  269.00000  223.00000  17.1%   615 1930s
   126   128  240.18355   93  246  269.00000  223.00000  17.1%   610 1935s
   129   131  238.18592   95  364  269.00000  223.00000  17.1%   605 1941s
   131   133  240.28350   96  276  269.00000  223.00000  17.1%   608 1949s
   132   134  240.33886   97  276  269.00000  223.00000  17.1%   605 1950s
   134   136  241.40300   98  203  269.00000  223.00000  17.1%   605 1956s
   138   140  240.85237  102  309  269.00000  223.00000  17.1%   595 1961s
   141   143  241.07845  104  260  269.00000  223.00000  17.1%   589 1965s
   145   147  241.62820  107  196  269.00000  223.00000  17.1%   581 1971s
   148   150  241.78121  109  233  269.00000  223.00000  17.1%   575 1976s
   150   151  242.36632  111  233  269.00000  223.00000  17.1%   572 1980s
   151   152  243.00000  112  381  269.00000  223.00000  17.1%   608 2012s
   153   154  243.00000  114  382  269.00000  223.00000  17.1%   604 2015s
   154   155  243.00000  115  407  269.00000  223.00000  17.1%   608 2020s
   155   156  243.00000  116  358  269.00000  223.00000  17.1%   616 2029s
   156   157  243.04570  117  215  269.00000  223.00000  17.1%   614 2031s
   157   158  243.35384  117  210  269.00000  223.00000  17.1%   617 2035s
   160   160  244.00000  120  322  269.00000  223.00000  17.1%   637 2059s
   162   162  244.00000  122  332  269.00000  223.00000  17.1%   631 2060s
   163   163  244.00000  123  392  269.00000  223.00000  17.1%   643 2073s
   164   164  244.08283  124  238  269.00000  223.00000  17.1%   659 2088s
   165   165  244.00000  124  332  269.00000  223.00000  17.1%   686 2114s
   166   166  244.46064  125  227  269.00000  223.00000  17.1%   686 2117s
   169   169  244.11916  127  229  269.00000  223.00000  17.1%   679 2120s
   171   171  244.18687  128  236  269.00000  223.00000  17.1%   679 2126s
   174   174  245.18631  130  259  269.00000  223.00000  17.1%   675 2133s
   177   177  245.30502  133  291  269.00000  223.00000  17.1%   667 2136s
   180   180  245.55993  136  270  269.00000  223.00000  17.1%   660 2140s
   183   183  245.77020  138  254  269.00000  223.00000  17.1%   657 2146s
   185   185  247.48527  139  268  269.00000  223.00000  17.1%   659 2152s
   188   188  262.00000  141  448  269.00000  223.00000  17.1%   671 2168s
   191   191  249.12957  144  199  269.00000  223.00000  17.1%   663 2170s
   194   194  252.55649  146  234  269.00000  223.00000  17.1%   661 2176s
   206   205  250.00000  158  329  269.00000  223.00000  17.1%   633 2185s
   209   208  250.00000  161  363  269.00000  223.00000  17.1%   636 2196s
   210   209  250.05358  162  251  269.00000  223.00000  17.1%   643 2204s
   211   210  250.00000  162  256  269.00000  223.00000  17.1%   652 2214s
   212   211  250.43012  163  230  269.00000  223.00000  17.1%   657 2221s
   213   212  250.24688  163  281  269.00000  223.00000  17.1%   661 2227s
   217   216  253.24087  166  273  269.00000  223.00000  17.1%   654 2231s
   221   220  250.80357  170  240  269.00000  223.00000  17.1%   646 2235s
   232   231  251.19589  181  221  269.00000  223.00000  17.1%   620 2240s
   244   243  251.90214  193  241  269.00000  223.00000  17.1%   594 2245s
   255   254  252.63001  204  259  269.00000  223.00000  17.1%   574 2250s
   259   258  252.82856  207  252  269.00000  223.00000  17.1%   570 2255s
   263   262  253.06177  210  249  269.00000  223.00000  17.1%   565 2260s
   274   273  253.44387  220  213  269.00000  223.00000  17.1%   548 2265s
   282   281  254.30125  227  214  269.00000  223.00000  17.1%   538 2271s
   294   293  253.89403  237  197  269.00000  223.00000  17.1%   519 2275s
   300   299  256.44092  242  228  269.00000  223.00000  17.1%   515 2281s
   305   304  255.02031  247  238  269.00000  223.00000  17.1%   510 2285s
   315   314  255.27684  257  155  269.00000  223.00000  17.1%   498 2290s
   324   323  256.90553  265  173  269.00000  223.00000  17.1%   490 2296s
   330   329  257.92678  270  189  269.00000  223.00000  17.1%   486 2300s
   338   337  259.32400  276  242  269.00000  223.00000  17.1%   480 2306s
   344   343  260.00688  281  231  269.00000  223.00000  17.1%   477 2310s
   355   354  260.33580  291  231  269.00000  223.00000  17.1%   466 2315s
   368   367  263.60243  302  203  269.00000  223.00000  17.1%   455 2320s
   389   385  265.00000  320  279  269.00000  223.00000  17.1%   438 2326s
   406   402  266.73266  335  171  269.00000  223.00000  17.1%   425 2330s
   418   412  267.63025  344  159  269.00000  223.00000  17.1%   423 2335s
   425   413  223.00000    1  537  269.00000  223.00000  17.1%   424 2361s
   426   414  223.00000    2  571  269.00000  223.00000  17.1%   440 2418s
   427   415  223.00000    3  573  269.00000  223.00000  17.1%   441 2427s
   428   416  223.00000    4  577  269.00000  223.00000  17.1%   442 2433s
   429   417  223.05570    5  532  269.00000  223.00000  17.1%   443 2440s
   430   418  223.00000    5  597  269.00000  223.00000  17.1%   444 2446s
   431   419  223.05618    6  531  269.00000  223.00000  17.1%   444 2450s
   432   420  223.13633    6  516  269.00000  223.00000  17.1%   446 2457s
   433   421  223.58673    7  462  269.00000  223.00000  17.1%   447 2465s
   434   422  223.39671    7  532  269.00000  223.00000  17.1%   447 2470s
   436   424  223.95831    9  486  269.00000  223.00000  17.1%   447 2475s
   438   426  224.17692   11  483  269.00000  223.00000  17.1%   447 2480s
   439   427  224.57113   12  457  269.00000  223.00000  17.1%   448 2486s
   440   428  224.90216   13  441  269.00000  223.00000  17.1%   448 2491s
   441   429  224.86494   13  413  269.00000  223.00000  17.1%   449 2496s
   443   431  225.16650   15  456  269.00000  223.00000  17.1%   449 2502s
   444   432  225.78650   15  407  269.00000  223.00000  17.1%   450 2507s
   446   434  226.55967   16  530  269.00000  223.00000  17.1%   451 2517s
   448   436  226.59408   18  527  269.00000  223.00000  17.1%   450 2520s
   450   438  227.00635   20  477  269.00000  223.00000  17.1%   450 2527s
   452   440  227.18430   22  494  269.00000  223.00000  17.1%   450 2533s
   453   441  227.24386   23  461  269.00000  223.00000  17.1%   450 2535s
   454   442  228.15460   23  395  269.00000  223.00000  17.1%   451 2542s
   456   444  228.52241   25  462  269.00000  223.00000  17.1%   451 2547s
   457   445  228.35383   25  400  269.00000  223.00000  17.1%   451 2550s
   460   448  228.94416   28  396  269.00000  223.00000  17.1%   451 2557s
   463   451  229.28230   30  444  269.00000  223.00000  17.1%   450 2561s
   465   453  228.89415   31  418  269.00000  223.00000  17.1%   449 2566s
   466   454  229.24285   31  431  269.00000  223.00000  17.1%   450 2570s
   470   458  229.48143   35  372  269.00000  223.00000  17.1%   449 2580s
   471   459  229.72616   35  396  269.00000  223.00000  17.1%   450 2585s
   473   461  230.08067   37  407  269.00000  223.00000  17.1%   450 2831s
   475   463  230.17733   39  417  269.00000  223.00000  17.1%   449 2836s
   476   464  230.56419   39  475  269.00000  223.00000  17.1%   450 2841s
   478   466  230.64974   41  432  269.00000  223.00000  17.1%   450 2845s
   480   468  230.87804   42  389  269.00000  223.00000  17.1%   450 2852s
   481   469  231.18546   43  389  269.00000  223.00000  17.1%   450 2855s
   482   470  231.78141   43  411  269.00000  223.00000  17.1%   451 2860s
   484   472  231.54606   44  421  269.00000  223.00000  17.1%   451 2868s
   485   473  231.63009   45  375  269.00000  223.00000  17.1%   451 2870s
   489   477  231.71447   48  367  269.00000  223.00000  17.1%   449 2875s
   492   480  232.47923   50  396  269.00000  223.00000  17.1%   449 2882s
   494   482  231.97586   52  346  269.00000  223.00000  17.1%   448 2885s
   498   486  232.34614   55  315  269.00000  223.00000  17.1%   446 2891s
   500   488  232.17335   57  406  269.00000  223.00000  17.1%   446 2896s
   502   490  234.49854   58  326  269.00000  223.00000  17.1%   447 2905s
   505   493  232.33682   61  365  269.00000  223.00000  17.1%   446 2910s
   509   496  232.46031   65  327  269.00000  223.00000  17.1%   444 2915s
   511   497  235.51200   69  449  269.00000  223.00000  17.1%   443 3203s

Cutting planes:
  Learned: 4
  Gomory: 1
  MIR: 29
  Flow cover: 110
  Zero half: 5

Explored 512 nodes (440610 simplex iterations) in 3612.26 seconds
Thread count was 1 (of 12 available processors)

Solution count 4: 269 290 15658 15723 
Pool objective bound 223

Time limit reached
Best objective 2.690000000000e+02, best bound 2.230000000000e+02, gap 17.1004%
